46
1 0 17
2 0 13
2 1 13
3 0 8
3 1 27
3 2 16
4 0 11
4 1 24
4 2 1
4 3 15
5 0 15
5 1 5
5 2 18
5 3 24
5 4 20
6 0 5
6 1 26
6 2 7
6 3 17
6 4 16
6 5 3
7 0 27
7 1 28
7 2 26
7 3 19
7 4 8
7 5 13
7 6 6
8 0 3
8 1 4
8 2 9
8 3 28
8 4 23
8 5 25
8 6 15
8 7 8
9 0 24
9 1 22
9 2 23
9 3 20
9 4 26
9 5 8
9 6 23
9 7 3
9 8 1
10 0 9
10 1 9
10 2 21
10 3 2
10 4 17
10 5 4
10 6 11
10 7 23
10 8 24
10 9 14
11 0 22
11 1 23
11 2 1
11 3 12
11 4 12
11 5 21
11 6 13
11 7 24
11 8 26
11 9 1
11 10 20
12 0 21
12 1 3
12 2 28
12 3 7
12 4 16
12 5 4
12 6 28
12 7 18
12 8 15
12 9 14
12 10 25
12 11 1
13 0 25
13 1 11
13 2 22
13 3 14
13 4 28
13 5 27
13 6 29
13 7 20
13 8 14
13 9 12
13 10 2
13 11 19
13 12 24
14 0 18
14 1 6
14 2 6
14 3 11
14 4 20
14 5 21
14 6 18
14 7 2
14 8 1
14 9 26
14 10 15
14 11 24
14 12 27
14 13 21
15 0 26
15 1 20
15 2 15
15 3 9
15 4 28
15 5 19
15 6 14
15 7 23
15 8 15
15 9 7
15 10 23
15 11 1
15 12 13
15 13 20
15 14 17
16 0 7
16 1 20
16 2 20
16 3 24
16 4 18
16 5 7
16 6 24
16 7 10
16 8 4
16 9 4
16 10 3
16 11 14
16 12 7
16 13 14
16 14 16
16 15 17
17 0 2
17 1 26
17 2 12
17 3 9
17 4 20
17 5 15
17 6 22
17 7 18
17 8 25
17 9 4
17 10 27
17 11 13
17 12 7
17 13 20
17 14 28
17 15 16
17 16 6
18 0 3
18 1 13
18 2 18
18 3 24
18 4 4
18 5 6
18 6 22
18 7 9
18 8 26
18 9 16
18 10 6
18 11 11
18 12 24
18 13 1
18 14 24
18 15 1
18 16 28
18 17 20
19 0 4
19 1 27
19 2 24
19 3 29
19 4 22
19 5 8
19 6 4
19 7 21
19 8 7
19 9 14
19 10 22
19 11 23
19 12 8
19 13 2
19 14 23
19 15 25
19 16 10
19 17 11
19 18 10
20 0 20
20 1 26
20 2 22
20 3 21
20 4 1
20 5 18
20 6 6
20 7 9
20 8 26
20 9 25
20 10 16
20 11 13
20 12 6
20 13 24
20 14 16
20 15 9
20 16 13
20 17 20
20 18 19
20 19 19
21 0 17
21 1 28
21 2 7
21 3 7
21 4 14
21 5 27
21 6 18
21 7 16
21 8 21
21 9 14
21 10 6
21 11 16
21 12 4
21 13 5
21 14 5
21 15 7
21 16 4
21 17 1
21 18 3
21 19 24
21 20 18
22 0 15
22 1 8
22 2 24
22 3 5
22 4 26
22 5 11
22 6 16
22 7 17
22 8 8
22 9 23
22 10 21
22 11 18
22 12 26
22 13 3
22 14 4
22 15 16
22 16 28
22 17 8
22 18 19
22 19 23
22 20 27
22 21 12
23 0 29
23 1 4
23 2 19
23 3 10
23 4 26
23 5 24
23 6 29
23 7 14
23 8 29
23 9 16
23 10 20
23 11 11
23 12 3
23 13 28
23 14 25
23 15 8
23 16 26
23 17 19
23 18 18
23 19 12
23 20 10
23 21 1
23 22 4
24 0 24
24 1 4
24 2 24
24 3 13
24 4 25
24 5 27
24 6 11
24 7 8
24 8 3
24 9 19
24 10 14
24 11 10
24 12 27
24 13 12
24 14 14
24 15 18
24 16 21
24 17 8
24 18 19
24 19 16
24 20 7
24 21 2
24 22 2
24 23 19
25 0 29
25 1 17
25 2 23
25 3 13
25 4 29
25 5 27
25 6 17
25 7 29
25 8 24
25 9 27
25 10 29
25 11 14
25 12 8
25 13 5
25 14 7
25 15 28
25 16 4
25 17 17
25 18 6
25 19 17
25 20 3
25 21 26
25 22 18
25 23 21
25 24 26
26 0 4
26 1 3
26 2 23
26 3 8
26 4 16
26 5 23
26 6 20
26 7 28
26 8 3
26 9 18
26 10 13
26 11 12
26 12 14
26 13 19
26 14 6
26 15 7
26 16 15
26 17 15
26 18 7
26 19 14
26 20 8
26 21 12
26 22 24
26 23 25
26 24 7
26 25 8
27 0 3
27 1 14
27 2 8
27 3 19
27 4 5
27 5 15
27 6 18
27 7 8
27 8 29
27 9 24
27 10 19
27 11 27
27 12 11
27 13 28
27 14 10
27 15 4
27 16 11
27 17 27
27 18 25
27 19 26
27 20 3
27 21 16
27 22 14
27 23 10
27 24 13
27 25 2
27 26 20
28 0 23
28 1 3
28 2 1
28 3 18
28 4 11
28 5 16
28 6 23
28 7 15
28 8 19
28 9 5
28 10 14
28 11 12
28 12 12
28 13 25
28 14 23
28 15 5
28 16 23
28 17 7
28 18 1
28 19 1
28 20 10
28 21 13
28 22 22
28 23 6
28 24 1
28 25 4
28 26 9
28 27 5
29 0 23
29 1 18
29 2 4
29 3 17
29 4 4
29 5 25
29 6 12
29 7 20
29 8 17
29 9 17
29 10 22
29 11 25
29 12 5
29 13 19
29 14 16
29 15 5
29 16 16
29 17 14
29 18 11
29 19 21
29 20 22
29 21 5
29 22 6
29 23 29
29 24 5
29 25 19
29 26 29
29 27 29
29 28 17
30 0 26
30 1 3
30 2 3
30 3 4
30 4 8
30 5 2
30 6 5
30 7 21
30 8 8
30 9 21
30 10 17
30 11 11
30 12 8
30 13 25
30 14 7
30 15 28
30 16 9
30 17 13
30 18 23
30 19 1
30 20 19
30 21 4
30 22 5
30 23 5
30 24 27
30 25 7
30 26 7
30 27 8
30 28 28
30 29 11
31 0 16
31 1 24
31 2 17
31 3 4
31 4 6
31 5 18
31 6 8
31 7 11
31 8 27
31 9 5
31 10 25
31 11 8
31 12 28
31 13 5
31 14 10
31 15 28
31 16 11
31 17 26
31 18 3
31 19 13
31 20 23
31 21 16
31 22 3
31 23 12
31 24 23
31 25 4
31 26 4
31 27 16
31 28 16
31 29 19
31 30 18
32 0 1
32 1 6
32 2 10
32 3 7
32 4 8
32 5 2
32 6 2
32 7 2
32 8 10
32 9 29
32 10 6
32 11 23
32 12 26
32 13 6
32 14 10
32 15 11
32 16 10
32 17 7
32 18 16
32 19 12
32 20 8
32 21 13
32 22 24
32 23 25
32 24 10
32 25 17
32 26 6
32 27 23
32 28 22
32 29 15
32 30 18
32 31 13
33 0 7
33 1 16
33 2 27
33 3 27
33 4 13
33 5 8
33 6 22
33 7 2
33 8 27
33 9 12
33 10 13
33 11 4
33 12 16
33 13 20
33 14 23
33 15 7
33 16 9
33 17 6
33 18 4
33 19 11
33 20 21
33 21 5
33 22 11
33 23 13
33 24 19
33 25 17
33 26 7
33 27 12
33 28 19
33 29 27
33 30 11
33 31 4
33 32 7
34 0 23
34 1 13
34 2 5
34 3 24
34 4 19
34 5 4
34 6 21
34 7 12
34 8 7
34 9 6
34 10 7
34 11 8
34 12 5
34 13 24
34 14 9
34 15 29
34 16 10
34 17 9
34 18 7
34 19 17
34 20 23
34 21 8
34 22 6
34 23 8
34 24 4
34 25 5
34 26 11
34 27 27
34 28 2
34 29 2
34 30 15
34 31 2
34 32 1
34 33 12
35 0 5
35 1 9
35 2 15
35 3 19
35 4 2
35 5 10
35 6 3
35 7 5
35 8 25
35 9 25
35 10 29
35 11 28
35 12 18
35 13 6
35 14 23
35 15 21
35 16 13
35 17 12
35 18 21
35 19 2
35 20 18
35 21 7
35 22 5
35 23 22
35 24 7
35 25 28
35 26 25
35 27 8
35 28 24
35 29 6
35 30 14
35 31 27
35 32 29
35 33 14
35 34 1
36 0 16
36 1 24
36 2 7
36 3 10
36 4 11
36 5 16
36 6 20
36 7 11
36 8 19
36 9 12
36 10 4
36 11 28
36 12 3
36 13 1
36 14 7
36 15 12
36 16 9
36 17 12
36 18 13
36 19 12
36 20 11
36 21 26
36 22 16
36 23 11
36 24 1
36 25 27
36 26 16
36 27 24
36 28 14
36 29 1
36 30 8
36 31 13
36 32 15
36 33 21
36 34 10
36 35 6
37 0 24
37 1 27
37 2 14
37 3 20
37 4 3
37 5 4
37 6 6
37 7 24
37 8 23
37 9 29
37 10 12
37 11 15
37 12 18
37 13 5
37 14 13
37 15 24
37 16 26
37 17 28
37 18 23
37 19 26
37 20 12
37 21 22
37 22 28
37 23 11
37 24 15
37 25 4
37 26 25
37 27 12
37 28 20
37 29 23
37 30 12
37 31 11
37 32 9
37 33 27
37 34 3
37 35 22
37 36 1
38 0 28
38 1 23
38 2 7
38 3 20
38 4 13
38 5 9
38 6 5
38 7 8
38 8 7
38 9 6
38 10 22
38 11 7
38 12 1
38 13 21
38 14 10
38 15 13
38 16 14
38 17 7
38 18 16
38 19 16
38 20 28
38 21 10
38 22 5
38 23 7
38 24 19
38 25 17
38 26 27
38 27 7
38 28 3
38 29 7
38 30 4
38 31 14
38 32 25
38 33 1
38 34 5
38 35 27
38 36 25
38 37 6
39 0 11
39 1 2
39 2 7
39 3 26
39 4 6
39 5 13
39 6 27
39 7 8
39 8 14
39 9 25
39 10 23
39 11 24
39 12 29
39 13 16
39 14 6
39 15 18
39 16 27
39 17 8
39 18 21
39 19 1
39 20 26
39 21 9
39 22 26
39 23 13
39 24 10
39 25 17
39 26 1
39 27 17
39 28 28
39 29 21
39 30 15
39 31 1
39 32 3
39 33 2
39 34 10
39 35 19
39 36 7
39 37 6
39 38 1
40 0 25
40 1 6
40 2 26
40 3 6
40 4 18
40 5 26
40 6 5
40 7 29
40 8 1
40 9 5
40 10 15
40 11 20
40 12 23
40 13 12
40 14 14
40 15 28
40 16 16
40 17 7
40 18 9
40 19 4
40 20 14
40 21 22
40 22 5
40 23 20
40 24 2
40 25 24
40 26 13
40 27 12
40 28 12
40 29 4
40 30 22
40 31 15
40 32 10
40 33 25
40 34 28
40 35 9
40 36 19
40 37 8
40 38 2
40 39 1
41 0 8
41 1 22
41 2 5
41 3 16
41 4 18
41 5 1
41 6 15
41 7 10
41 8 23
41 9 7
41 10 7
41 11 17
41 12 23
41 13 16
41 14 26
41 15 24
41 16 25
41 17 15
41 18 3
41 19 13
41 20 19
41 21 22
41 22 21
41 23 21
41 24 20
41 25 14
41 26 16
41 27 5
41 28 29
41 29 8
41 30 3
41 31 29
41 32 6
41 33 13
41 34 21
41 35 29
41 36 19
41 37 29
41 38 28
41 39 26
41 40 11
42 0 18
42 1 14
42 2 24
42 3 15
42 4 22
42 5 28
42 6 2
42 7 26
42 8 4
42 9 20
42 10 23
42 11 5
42 12 24
42 13 21
42 14 9
42 15 23
42 16 4
42 17 1
42 18 12
42 19 16
42 20 15
42 21 23
42 22 19
42 23 12
42 24 28
42 25 16
42 26 24
42 27 9
42 28 13
42 29 25
42 30 12
42 31 10
42 32 21
42 33 9
42 34 15
42 35 10
42 36 4
42 37 19
42 38 8
42 39 13
42 40 25
42 41 6
43 0 10
43 1 25
43 2 2
43 3 10
43 4 16
43 5 8
43 6 3
43 7 8
43 8 18
43 9 19
43 10 5
43 11 8
43 12 11
43 13 8
43 14 13
43 15 29
43 16 28
43 17 27
43 18 26
43 19 12
43 20 2
43 21 8
43 22 11
43 23 27
43 24 2
43 25 9
43 26 12
43 27 5
43 28 16
43 29 10
43 30 9
43 31 24
43 32 28
43 33 15
43 34 20
43 35 22
43 36 22
43 37 7
43 38 8
43 39 17
43 40 20
43 41 3
43 42 14
44 0 2
44 1 7
44 2 14
44 3 18
44 4 23
44 5 28
44 6 20
44 7 9
44 8 1
44 9 17
44 10 7
44 11 2
44 12 12
44 13 17
44 14 23
44 15 12
44 16 14
44 17 9
44 18 21
44 19 26
44 20 21
44 21 21
44 22 19
44 23 16
44 24 18
44 25 13
44 26 1
44 27 9
44 28 12
44 29 27
44 30 20
44 31 25
44 32 22
44 33 10
44 34 1
44 35 3
44 36 6
44 37 6
44 38 10
44 39 13
44 40 23
44 41 15
44 42 12
44 43 7
45 0 10
45 1 12
45 2 3
45 3 8
45 4 2
45 5 20
45 6 23
45 7 1
45 8 23
45 9 2
45 10 5
45 11 14
45 12 24
45 13 17
45 14 4
45 15 2
45 16 6
45 17 14
45 18 7
45 19 9
45 20 27
45 21 5
45 22 25
45 23 22
45 24 15
45 25 4
45 26 27
45 27 8
45 28 16
45 29 18
45 30 26
45 31 20
45 32 19
45 33 9
45 34 10
45 35 24
45 36 22
45 37 22
45 38 21
45 39 15
45 40 14
45 41 9
45 42 6
45 43 15
45 44 6
